cost: 1419.12
Route 1:           0   21   26   23   20   17   16   19   25   22   24   27   33   30   31   28   32   35   34   36   29   47   59   65   61   62   64   66   63   60   56   58   55   53   54   57   52    0
Route 2:           0   40   43   45   48   51   50   49   46   44   41   42   39   38   37  109  114    0
Route 3:           0   82   81    2    1    3    4    5    6    7    9   10   11   15   14   13   12    8  108  118   18   90   91    0
Route 4:           0   87   92   89   85   84  113   83  117  112   86  111   88    0
Route 5:           0  102  101   99  100  116  110  115   97   94   93   96   95    0
Route 6:           0  105  106  107  104  103   67   69   70   71   74   72   75   78   80   79   77   76   73   68   98    0
Route 7:           0  119  120    0
